c nIsolatedPIs 0
c maxPI 16
p cnf 321 916
c gate 17 2 15 0
2 -17 0
15 -17 0
-2 -15 17 0
c gate 18 3 13 0
3 -18 0
13 -18 0
-3 -13 18 0
c gate 19 4 12 0
4 -19 0
12 -19 0
-4 -12 19 0
c gate 20 18 19 0
18 -20 0
19 -20 0
-18 -19 20 0
c gate 21 2 14 0
2 -21 0
14 -21 0
-2 -14 21 0
c gate 22 -18 -19 0
-18 -22 0
-19 -22 0
18 19 22 0
c gate 23 -20 -22 0
-20 -23 0
-22 -23 0
20 22 23 0
c gate 24 21 23 0
21 -24 0
23 -24 0
-21 -23 24 0
c gate 25 -20 -24 0
-20 -25 0
-24 -25 0
20 24 25 0
c gate 26 17 -25 0
17 -26 0
-25 -26 0
-17 25 26 0
c gate 27 1 16 0
1 -27 0
16 -27 0
-1 -16 27 0
c gate 28 -17 25 0
-17 -28 0
25 -28 0
17 -25 28 0
c gate 29 -26 -28 0
-26 -29 0
-28 -29 0
26 28 29 0
c gate 30 27 29 0
27 -30 0
29 -30 0
-27 -29 30 0
c gate 31 -26 -30 0
-26 -31 0
-30 -31 0
26 30 31 0
c gate 32 5 11 0
5 -32 0
11 -32 0
-5 -11 32 0
c gate 33 6 10 0
6 -33 0
10 -33 0
-6 -10 33 0
c gate 34 7 9 0
7 -34 0
9 -34 0
-7 -9 34 0
c gate 35 -33 -34 0
-33 -35 0
-34 -35 0
33 34 35 0
c gate 36 33 34 0
33 -36 0
34 -36 0
-33 -34 36 0
c gate 37 -35 -36 0
-35 -37 0
-36 -37 0
35 36 37 0
c gate 38 32 37 0
32 -38 0
37 -38 0
-32 -37 38 0
c gate 39 -32 -37 0
-32 -39 0
-37 -39 0
32 37 39 0
c gate 40 -38 -39 0
-38 -40 0
-39 -40 0
38 39 40 0
c gate 41 5 10 0
5 -41 0
10 -41 0
-5 -10 41 0
c gate 42 6 9 0
6 -42 0
9 -42 0
-6 -9 42 0
c gate 43 -41 -42 0
-41 -43 0
-42 -43 0
41 42 43 0
c gate 44 41 42 0
41 -44 0
42 -44 0
-41 -42 44 0
c gate 45 -43 -44 0
-43 -45 0
-44 -45 0
43 44 45 0
c gate 46 4 11 0
4 -46 0
11 -46 0
-4 -11 46 0
c gate 47 45 -46 0
45 -47 0
-46 -47 0
-45 46 47 0
c gate 48 -43 -47 0
-43 -48 0
-47 -48 0
43 47 48 0
c gate 49 40 48 0
40 -49 0
48 -49 0
-40 -48 49 0
c gate 50 -21 -23 0
-21 -50 0
-23 -50 0
21 23 50 0
c gate 51 -24 -50 0
-24 -51 0
-50 -51 0
24 50 51 0
c gate 52 -40 -48 0
-40 -52 0
-48 -52 0
40 48 52 0
c gate 53 -49 -52 0
-49 -53 0
-52 -53 0
49 52 53 0
c gate 54 51 53 0
51 -54 0
53 -54 0
-51 -53 54 0
c gate 55 -49 -54 0
-49 -55 0
-54 -55 0
49 54 55 0
c gate 56 3 14 0
3 -56 0
14 -56 0
-3 -14 56 0
c gate 57 4 13 0
4 -57 0
13 -57 0
-4 -13 57 0
c gate 58 5 12 0
5 -58 0
12 -58 0
-5 -12 58 0
c gate 59 -57 -58 0
-57 -59 0
-58 -59 0
57 58 59 0
c gate 60 57 58 0
57 -60 0
58 -60 0
-57 -58 60 0
c gate 61 -59 -60 0
-59 -61 0
-60 -61 0
59 60 61 0
c gate 62 56 61 0
56 -62 0
61 -62 0
-56 -61 62 0
c gate 63 -56 -61 0
-56 -63 0
-61 -63 0
56 61 63 0
c gate 64 -62 -63 0
-62 -64 0
-63 -64 0
62 63 64 0
c gate 65 -36 -38 0
-36 -65 0
-38 -65 0
36 38 65 0
c gate 66 6 11 0
6 -66 0
11 -66 0
-6 -11 66 0
c gate 67 7 10 0
7 -67 0
10 -67 0
-7 -10 67 0
c gate 68 8 9 0
8 -68 0
9 -68 0
-8 -9 68 0
c gate 69 -67 -68 0
-67 -69 0
-68 -69 0
67 68 69 0
c gate 70 67 68 0
67 -70 0
68 -70 0
-67 -68 70 0
c gate 71 -69 -70 0
-69 -71 0
-70 -71 0
69 70 71 0
c gate 72 66 71 0
66 -72 0
71 -72 0
-66 -71 72 0
c gate 73 -66 -71 0
-66 -73 0
-71 -73 0
66 71 73 0
c gate 74 -72 -73 0
-72 -74 0
-73 -74 0
72 73 74 0
c gate 75 -65 74 0
-65 -75 0
74 -75 0
65 -74 75 0
c gate 76 65 -74 0
65 -76 0
-74 -76 0
-65 74 76 0
c gate 77 -75 -76 0
-75 -77 0
-76 -77 0
75 76 77 0
c gate 78 64 77 0
64 -78 0
77 -78 0
-64 -77 78 0
c gate 79 -64 -77 0
-64 -79 0
-77 -79 0
64 77 79 0
c gate 80 -78 -79 0
-78 -80 0
-79 -80 0
78 79 80 0
c gate 81 -55 80 0
-55 -81 0
80 -81 0
55 -80 81 0
c gate 82 -27 -29 0
-27 -82 0
-29 -82 0
27 29 82 0
c gate 83 -30 -82 0
-30 -83 0
-82 -83 0
30 82 83 0
c gate 84 55 -80 0
55 -84 0
-80 -84 0
-55 80 84 0
c gate 85 -81 -84 0
-81 -85 0
-84 -85 0
81 84 85 0
c gate 86 83 85 0
83 -86 0
85 -86 0
-83 -85 86 0
c gate 87 -81 -86 0
-81 -87 0
-86 -87 0
81 86 87 0
c gate 88 2 16 0
2 -88 0
16 -88 0
-2 -16 88 0
c gate 89 3 15 0
3 -89 0
15 -89 0
-3 -15 89 0
c gate 90 -60 -62 0
-60 -90 0
-62 -90 0
60 62 90 0
c gate 91 89 -90 0
89 -91 0
-90 -91 0
-89 90 91 0
c gate 92 -89 90 0
-89 -92 0
90 -92 0
89 -90 92 0
c gate 93 -91 -92 0
-91 -93 0
-92 -93 0
91 92 93 0
c gate 94 88 93 0
88 -94 0
93 -94 0
-88 -93 94 0
c gate 95 -88 -93 0
-88 -95 0
-93 -95 0
88 93 95 0
c gate 96 -94 -95 0
-94 -96 0
-95 -96 0
94 95 96 0
c gate 97 -75 -78 0
-75 -97 0
-78 -97 0
75 78 97 0
c gate 98 4 14 0
4 -98 0
14 -98 0
-4 -14 98 0
c gate 99 5 13 0
5 -99 0
13 -99 0
-5 -13 99 0
c gate 100 6 12 0
6 -100 0
12 -100 0
-6 -12 100 0
c gate 101 -99 -100 0
-99 -101 0
-100 -101 0
99 100 101 0
c gate 102 99 100 0
99 -102 0
100 -102 0
-99 -100 102 0
c gate 103 -101 -102 0
-101 -103 0
-102 -103 0
101 102 103 0
c gate 104 98 103 0
98 -104 0
103 -104 0
-98 -103 104 0
c gate 105 -98 -103 0
-98 -105 0
-103 -105 0
98 103 105 0
c gate 106 -104 -105 0
-104 -106 0
-105 -106 0
104 105 106 0
c gate 107 -70 -72 0
-70 -107 0
-72 -107 0
70 72 107 0
c gate 108 8 10 0
8 -108 0
10 -108 0
-8 -10 108 0
c gate 109 7 11 0
7 -109 0
11 -109 0
-7 -11 109 0
c gate 110 -108 -109 0
-108 -110 0
-109 -110 0
108 109 110 0
c gate 111 108 109 0
108 -111 0
109 -111 0
-108 -109 111 0
c gate 112 -110 -111 0
-110 -112 0
-111 -112 0
110 111 112 0
c gate 113 -107 112 0
-107 -113 0
112 -113 0
107 -112 113 0
c gate 114 107 -112 0
107 -114 0
-112 -114 0
-107 112 114 0
c gate 115 -113 -114 0
-113 -115 0
-114 -115 0
113 114 115 0
c gate 116 106 115 0
106 -116 0
115 -116 0
-106 -115 116 0
c gate 117 -106 -115 0
-106 -117 0
-115 -117 0
106 115 117 0
c gate 118 -116 -117 0
-116 -118 0
-117 -118 0
116 117 118 0
c gate 119 -97 118 0
-97 -119 0
118 -119 0
97 -118 119 0
c gate 120 97 -118 0
97 -120 0
-118 -120 0
-97 118 120 0
c gate 121 -119 -120 0
-119 -121 0
-120 -121 0
119 120 121 0
c gate 122 96 121 0
96 -122 0
121 -122 0
-96 -121 122 0
c gate 123 -96 -121 0
-96 -123 0
-121 -123 0
96 121 123 0
c gate 124 -122 -123 0
-122 -124 0
-123 -124 0
122 123 124 0
c gate 125 -87 124 0
-87 -125 0
124 -125 0
87 -124 125 0
c gate 126 87 -124 0
87 -126 0
-124 -126 0
-87 124 126 0
c gate 127 -125 -126 0
-125 -127 0
-126 -127 0
125 126 127 0
c gate 128 -31 127 0
-31 -128 0
127 -128 0
31 -127 128 0
c gate 129 -91 -94 0
-91 -129 0
-94 -129 0
91 94 129 0
c gate 130 -119 -122 0
-119 -130 0
-122 -130 0
119 122 130 0
c gate 131 3 16 0
3 -131 0
16 -131 0
-3 -16 131 0
c gate 132 4 15 0
4 -132 0
15 -132 0
-4 -15 132 0
c gate 133 -102 -104 0
-102 -133 0
-104 -133 0
102 104 133 0
c gate 134 132 -133 0
132 -134 0
-133 -134 0
-132 133 134 0
c gate 135 -132 133 0
-132 -135 0
133 -135 0
132 -133 135 0
c gate 136 -134 -135 0
-134 -136 0
-135 -136 0
134 135 136 0
c gate 137 131 136 0
131 -137 0
136 -137 0
-131 -136 137 0
c gate 138 -131 -136 0
-131 -138 0
-136 -138 0
131 136 138 0
c gate 139 -137 -138 0
-137 -139 0
-138 -139 0
137 138 139 0
c gate 140 -113 -116 0
-113 -140 0
-116 -140 0
113 116 140 0
c gate 141 5 14 0
5 -141 0
14 -141 0
-5 -14 141 0
c gate 142 6 13 0
6 -142 0
13 -142 0
-6 -13 142 0
c gate 143 7 12 0
7 -143 0
12 -143 0
-7 -12 143 0
c gate 144 -142 -143 0
-142 -144 0
-143 -144 0
142 143 144 0
c gate 145 142 143 0
142 -145 0
143 -145 0
-142 -143 145 0
c gate 146 -144 -145 0
-144 -146 0
-145 -146 0
144 145 146 0
c gate 147 141 146 0
141 -147 0
146 -147 0
-141 -146 147 0
c gate 148 -141 -146 0
-141 -148 0
-146 -148 0
141 146 148 0
c gate 149 -147 -148 0
-147 -149 0
-148 -149 0
147 148 149 0
c gate 150 8 11 0
8 -150 0
11 -150 0
-8 -11 150 0
c gate 151 -67 150 0
-67 -151 0
150 -151 0
67 -150 151 0
c gate 152 149 151 0
149 -152 0
151 -152 0
-149 -151 152 0
c gate 153 -149 -151 0
-149 -153 0
-151 -153 0
149 151 153 0
c gate 154 -152 -153 0
-152 -154 0
-153 -154 0
152 153 154 0
c gate 155 -140 154 0
-140 -155 0
154 -155 0
140 -154 155 0
c gate 156 140 -154 0
140 -156 0
-154 -156 0
-140 154 156 0
c gate 157 -155 -156 0
-155 -157 0
-156 -157 0
155 156 157 0
c gate 158 139 157 0
139 -158 0
157 -158 0
-139 -157 158 0
c gate 159 -139 -157 0
-139 -159 0
-157 -159 0
139 157 159 0
c gate 160 -158 -159 0
-158 -160 0
-159 -160 0
158 159 160 0
c gate 161 -130 160 0
-130 -161 0
160 -161 0
130 -160 161 0
c gate 162 130 -160 0
130 -162 0
-160 -162 0
-130 160 162 0
c gate 163 -161 -162 0
-161 -163 0
-162 -163 0
161 162 163 0
c gate 164 -129 163 0
-129 -164 0
163 -164 0
129 -163 164 0
c gate 165 129 -163 0
129 -165 0
-163 -165 0
-129 163 165 0
c gate 166 -164 -165 0
-164 -166 0
-165 -166 0
164 165 166 0
c gate 167 -125 -166 0
-125 -167 0
-166 -167 0
125 166 167 0
c gate 168 -51 -53 0
-51 -168 0
-53 -168 0
51 53 168 0
c gate 169 -54 -168 0
-54 -169 0
-168 -169 0
54 168 169 0
c gate 170 4 10 0
4 -170 0
10 -170 0
-4 -10 170 0
c gate 171 5 9 0
5 -171 0
9 -171 0
-5 -9 171 0
c gate 172 170 171 0
170 -172 0
171 -172 0
-170 -171 172 0
c gate 173 3 11 0
3 -173 0
11 -173 0
-3 -11 173 0
c gate 174 -170 -171 0
-170 -174 0
-171 -174 0
170 171 174 0
c gate 175 -172 -174 0
-172 -175 0
-174 -175 0
172 174 175 0
c gate 176 173 175 0
173 -176 0
175 -176 0
-173 -175 176 0
c gate 177 -172 -176 0
-172 -177 0
-176 -177 0
172 176 177 0
c gate 178 -45 46 0
-45 -178 0
46 -178 0
45 -46 178 0
c gate 179 -47 -178 0
-47 -179 0
-178 -179 0
47 178 179 0
c gate 180 177 179 0
177 -180 0
179 -180 0
-177 -179 180 0
c gate 181 -177 -179 0
-177 -181 0
-179 -181 0
177 179 181 0
c gate 182 -180 -181 0
-180 -182 0
-181 -182 0
180 181 182 0
c gate 183 1 14 0
1 -183 0
14 -183 0
-1 -14 183 0
c gate 184 2 13 0
2 -184 0
13 -184 0
-2 -13 184 0
c gate 185 3 12 0
3 -185 0
12 -185 0
-3 -12 185 0
c gate 186 -184 -185 0
-184 -186 0
-185 -186 0
184 185 186 0
c gate 187 184 185 0
184 -187 0
185 -187 0
-184 -185 187 0
c gate 188 -186 -187 0
-186 -188 0
-187 -188 0
186 187 188 0
c gate 189 183 188 0
183 -189 0
188 -189 0
-183 -188 189 0
c gate 190 -183 -188 0
-183 -190 0
-188 -190 0
183 188 190 0
c gate 191 -189 -190 0
-189 -191 0
-190 -191 0
189 190 191 0
c gate 192 182 -191 0
182 -192 0
-191 -192 0
-182 191 192 0
c gate 193 -180 -192 0
-180 -193 0
-192 -193 0
180 192 193 0
c gate 194 169 193 0
169 -194 0
193 -194 0
-169 -193 194 0
c gate 195 1 15 0
1 -195 0
15 -195 0
-1 -15 195 0
c gate 196 -187 -189 0
-187 -196 0
-189 -196 0
187 189 196 0
c gate 197 195 -196 0
195 -197 0
-196 -197 0
-195 196 197 0
c gate 198 -195 196 0
-195 -198 0
196 -198 0
195 -196 198 0
c gate 199 -197 -198 0
-197 -199 0
-198 -199 0
197 198 199 0
c gate 200 -169 -193 0
-169 -200 0
-193 -200 0
169 193 200 0
c gate 201 -194 -200 0
-194 -201 0
-200 -201 0
194 200 201 0
c gate 202 199 201 0
199 -202 0
201 -202 0
-199 -201 202 0
c gate 203 -194 -202 0
-194 -203 0
-202 -203 0
194 202 203 0
c gate 204 -83 -85 0
-83 -204 0
-85 -204 0
83 85 204 0
c gate 205 -86 -204 0
-86 -205 0
-204 -205 0
86 204 205 0
c gate 206 -203 205 0
-203 -206 0
205 -206 0
203 -205 206 0
c gate 207 31 -127 0
31 -207 0
-127 -207 0
-31 127 207 0
c gate 208 206 -207 0
206 -208 0
-207 -208 0
-206 207 208 0
c gate 209 -167 -208 0
-167 -209 0
-208 -209 0
167 208 209 0
c gate 210 -128 -209 0
-128 -210 0
-209 -210 0
128 209 210 0
c gate 211 -128 -207 0
-128 -211 0
-207 -211 0
128 207 211 0
c gate 212 -206 -211 0
-206 -212 0
-211 -212 0
206 211 212 0
c gate 213 -155 -158 0
-155 -213 0
-158 -213 0
155 158 213 0
c gate 214 4 16 0
4 -214 0
16 -214 0
-4 -16 214 0
c gate 215 5 15 0
5 -215 0
15 -215 0
-5 -15 215 0
c gate 216 -145 -147 0
-145 -216 0
-147 -216 0
145 147 216 0
c gate 217 215 -216 0
215 -217 0
-216 -217 0
-215 216 217 0
c gate 218 -215 216 0
-215 -218 0
216 -218 0
215 -216 218 0
c gate 219 -217 -218 0
-217 -219 0
-218 -219 0
217 218 219 0
c gate 220 214 219 0
214 -220 0
219 -220 0
-214 -219 220 0
c gate 221 -214 -219 0
-214 -221 0
-219 -221 0
214 219 221 0
c gate 222 -220 -221 0
-220 -222 0
-221 -222 0
220 221 222 0
c gate 223 -111 -152 0
-111 -223 0
-152 -223 0
111 152 223 0
c gate 224 6 14 0
6 -224 0
14 -224 0
-6 -14 224 0
c gate 225 7 13 0
7 -225 0
13 -225 0
-7 -13 225 0
c gate 226 8 12 0
8 -226 0
12 -226 0
-8 -12 226 0
c gate 227 -225 -226 0
-225 -227 0
-226 -227 0
225 226 227 0
c gate 228 225 226 0
225 -228 0
226 -228 0
-225 -226 228 0
c gate 229 -227 -228 0
-227 -229 0
-228 -229 0
227 228 229 0
c gate 230 224 229 0
224 -230 0
229 -230 0
-224 -229 230 0
c gate 231 -224 -229 0
-224 -231 0
-229 -231 0
224 229 231 0
c gate 232 -230 -231 0
-230 -232 0
-231 -232 0
230 231 232 0
c gate 233 -223 232 0
-223 -233 0
232 -233 0
223 -232 233 0
c gate 234 223 -232 0
223 -234 0
-232 -234 0
-223 232 234 0
c gate 235 -233 -234 0
-233 -235 0
-234 -235 0
233 234 235 0
c gate 236 222 235 0
222 -236 0
235 -236 0
-222 -235 236 0
c gate 237 -222 -235 0
-222 -237 0
-235 -237 0
222 235 237 0
c gate 238 -236 -237 0
-236 -238 0
-237 -238 0
236 237 238 0
c gate 239 -213 238 0
-213 -239 0
238 -239 0
213 -238 239 0
c gate 240 -134 -137 0
-134 -240 0
-137 -240 0
134 137 240 0
c gate 241 213 -238 0
213 -241 0
-238 -241 0
-213 238 241 0
c gate 242 -239 -241 0
-239 -242 0
-241 -242 0
239 241 242 0
c gate 243 -240 242 0
-240 -243 0
242 -243 0
240 -242 243 0
c gate 244 -239 -243 0
-239 -244 0
-243 -244 0
239 243 244 0
c gate 245 8 13 0
8 -245 0
13 -245 0
-8 -13 245 0
c gate 246 -233 -236 0
-233 -246 0
-236 -246 0
233 236 246 0
c gate 247 7 14 0
7 -247 0
14 -247 0
-7 -14 247 0
c gate 248 246 -247 0
246 -248 0
-247 -248 0
-246 247 248 0
c gate 249 -246 247 0
-246 -249 0
247 -249 0
246 -247 249 0
c gate 250 -248 -249 0
-248 -250 0
-249 -250 0
248 249 250 0
c gate 251 245 -250 0
245 -251 0
-250 -251 0
-245 250 251 0
c gate 252 -245 250 0
-245 -252 0
250 -252 0
245 -250 252 0
c gate 253 -251 -252 0
-251 -253 0
-252 -253 0
251 252 253 0
c gate 254 6 15 0
6 -254 0
15 -254 0
-6 -15 254 0
c gate 255 5 16 0
5 -255 0
16 -255 0
-5 -16 255 0
c gate 256 -217 -220 0
-217 -256 0
-220 -256 0
217 220 256 0
c gate 257 -228 -230 0
-228 -257 0
-230 -257 0
228 230 257 0
c gate 258 256 -257 0
256 -258 0
-257 -258 0
-256 257 258 0
c gate 259 -256 257 0
-256 -259 0
257 -259 0
256 -257 259 0
c gate 260 -258 -259 0
-258 -260 0
-259 -260 0
258 259 260 0
c gate 261 255 260 0
255 -261 0
260 -261 0
-255 -260 261 0
c gate 262 -255 -260 0
-255 -262 0
-260 -262 0
255 260 262 0
c gate 263 -261 -262 0
-261 -263 0
-262 -263 0
261 262 263 0
c gate 264 254 -263 0
254 -264 0
-263 -264 0
-254 263 264 0
c gate 265 -254 263 0
-254 -265 0
263 -265 0
254 -263 265 0
c gate 266 -264 -265 0
-264 -266 0
-265 -266 0
264 265 266 0
c gate 267 253 266 0
253 -267 0
266 -267 0
-253 -266 267 0
c gate 268 -253 -266 0
-253 -268 0
-266 -268 0
253 266 268 0
c gate 269 -267 -268 0
-267 -269 0
-268 -269 0
267 268 269 0
c gate 270 -244 -269 0
-244 -270 0
-269 -270 0
244 269 270 0
c gate 271 244 269 0
244 -271 0
269 -271 0
-244 -269 271 0
c gate 272 -270 -271 0
-270 -272 0
-271 -272 0
270 271 272 0
c gate 273 -212 272 0
-212 -273 0
272 -273 0
212 -272 273 0
c gate 274 -161 -164 0
-161 -274 0
-164 -274 0
161 164 274 0
c gate 275 240 -242 0
240 -275 0
-242 -275 0
-240 242 275 0
c gate 276 -243 -275 0
-243 -276 0
-275 -276 0
243 275 276 0
c gate 277 -274 -276 0
-274 -277 0
-276 -277 0
274 276 277 0
c gate 278 274 276 0
274 -278 0
276 -278 0
-274 -276 278 0
c gate 279 -277 -278 0
-277 -279 0
-278 -279 0
277 278 279 0
c gate 280 -125 -128 0
-125 -280 0
-128 -280 0
125 128 280 0
c gate 281 166 -280 0
166 -281 0
-280 -281 0
-166 280 281 0
c gate 282 203 -205 0
203 -282 0
-205 -282 0
-203 205 282 0
c gate 283 -206 -282 0
-206 -283 0
-282 -283 0
206 282 283 0
c gate 284 -197 -283 0
-197 -284 0
-283 -284 0
197 283 284 0
c gate 285 4 9 0
4 -285 0
9 -285 0
-4 -9 285 0
c gate 286 3 10 0
3 -286 0
10 -286 0
-3 -10 286 0
c gate 287 285 286 0
285 -287 0
286 -287 0
-285 -286 287 0
c gate 288 2 11 0
2 -288 0
11 -288 0
-2 -11 288 0
c gate 289 -285 -286 0
-285 -289 0
-286 -289 0
285 286 289 0
c gate 290 -287 -289 0
-287 -290 0
-289 -290 0
287 289 290 0
c gate 291 288 290 0
288 -291 0
290 -291 0
-288 -290 291 0
c gate 292 -287 -291 0
-287 -292 0
-291 -292 0
287 291 292 0
c gate 293 -173 -175 0
-173 -293 0
-175 -293 0
173 175 293 0
c gate 294 -176 -293 0
-176 -294 0
-293 -294 0
176 293 294 0
c gate 295 -292 294 0
-292 -295 0
294 -295 0
292 -294 295 0
c gate 296 2 12 0
2 -296 0
12 -296 0
-2 -12 296 0
c gate 297 1 13 0
1 -297 0
13 -297 0
-1 -13 297 0
c gate 298 -296 -297 0
-296 -298 0
-297 -298 0
296 297 298 0
c gate 299 296 297 0
296 -299 0
297 -299 0
-296 -297 299 0
c gate 300 -298 -299 0
-298 -300 0
-299 -300 0
298 299 300 0
c gate 301 292 -294 0
292 -301 0
-294 -301 0
-292 294 301 0
c gate 302 -295 -301 0
-295 -302 0
-301 -302 0
295 301 302 0
c gate 303 300 302 0
300 -303 0
302 -303 0
-300 -302 303 0
c gate 304 -295 -303 0
-295 -304 0
-303 -304 0
295 303 304 0
c gate 305 -182 191 0
-182 -305 0
191 -305 0
182 -191 305 0
c gate 306 -192 -305 0
-192 -306 0
-305 -306 0
192 305 306 0
c gate 307 -304 -306 0
-304 -307 0
-306 -307 0
304 306 307 0
c gate 308 304 306 0
304 -308 0
306 -308 0
-304 -306 308 0
c gate 309 -307 -308 0
-307 -309 0
-308 -309 0
307 308 309 0
c gate 310 299 309 0
299 -310 0
309 -310 0
-299 -309 310 0
c gate 311 -307 -310 0
-307 -311 0
-310 -311 0
307 310 311 0
c gate 312 -199 -201 0
-199 -312 0
-201 -312 0
199 201 312 0
c gate 313 -202 -312 0
-202 -313 0
-312 -313 0
202 312 313 0
c gate 314 -311 313 0
-311 -314 0
313 -314 0
311 -313 314 0
c gate 315 197 283 0
197 -315 0
283 -315 0
-197 -283 315 0
c gate 316 314 -315 0
314 -316 0
-315 -316 0
-314 315 316 0
c gate 317 -284 316 0
-284 -317 0
316 -317 0
284 -316 317 0
c gate 318 -281 317 0
-281 -318 0
317 -318 0
281 -317 318 0
c gate 319 -279 318 0
-279 -319 0
318 -319 0
279 -318 319 0
c gate 320 273 319 0
273 -320 0
319 -320 0
-273 -319 320 0
c gate 321 -210 320 0
-210 -321 0
320 -321 0
210 -320 321 0
c PO
321 0
